p wcnf 170 340 341 
1 138 153 0 
1 -40 95 0 
1 62 160 0 
1 81 38 0 
1 -139 -39 0 
1 -108 -159 0 
1 -125 139 0 
1 -32 -165 0 
1 67 -79 0 
1 24 156 0 
1 -165 157 0 
1 129 45 0 
1 2 -77 0 
1 143 -27 0 
1 -114 36 0 
1 -154 -63 0 
1 -63 -50 0 
1 -148 -59 0 
1 -154 141 0 
1 23 -159 0 
1 53 33 0 
1 151 10 0 
1 -49 103 0 
1 -131 -166 0 
1 -11 -154 0 
1 -150 42 0 
1 42 -96 0 
1 48 102 0 
1 -94 5 0 
1 103 6 0 
1 -127 -107 0 
1 50 98 0 
1 -130 -157 0 
1 146 -126 0 
1 -74 14 0 
1 -79 -84 0 
1 -69 -120 0 
1 -158 12 0 
1 151 -5 0 
1 18 -5 0 
1 -90 -86 0 
1 87 -104 0 
1 100 55 0 
1 115 4 0 
1 126 -4 0 
1 116 35 0 
1 -123 -20 0 
1 152 -65 0 
1 -11 137 0 
1 -50 25 0 
1 -122 158 0 
1 169 48 0 
1 -79 6 0 
1 20 165 0 
1 110 33 0 
1 -67 129 0 
1 29 120 0 
1 -109 93 0 
1 -128 109 0 
1 73 -52 0 
1 136 -44 0 
1 148 101 0 
1 -102 -60 0 
1 -35 -74 0 
1 113 -136 0 
1 85 111 0 
1 108 -165 0 
1 86 24 0 
1 -10 -80 0 
1 34 94 0 
1 118 41 0 
1 -86 83 0 
1 -84 38 0 
1 -67 -18 0 
1 -34 73 0 
1 55 -158 0 
1 77 161 0 
1 -47 163 0 
1 -153 148 0 
1 -33 9 0 
1 -142 128 0 
1 -19 -31 0 
1 97 93 0 
1 -9 99 0 
1 -33 -129 0 
1 45 -166 0 
1 38 -33 0 
1 -67 69 0 
1 115 -66 0 
1 107 135 0 
1 -113 -71 0 
1 -85 135 0 
1 -18 107 0 
1 -110 -18 0 
1 -108 -17 0 
1 112 -145 0 
1 103 12 0 
1 -82 -92 0 
1 -170 -1 0 
1 10 170 0 
1 -167 95 0 
1 -42 149 0 
1 64 58 0 
1 -134 96 0 
1 112 85 0 
1 -113 15 0 
1 104 -111 0 
1 -110 162 0 
1 32 -34 0 
1 -148 146 0 
1 -39 72 0 
1 -53 -106 0 
1 -55 109 0 
1 -41 -52 0 
1 118 83 0 
1 -165 -64 0 
1 -77 -152 0 
1 43 -136 0 
1 -106 80 0 
1 29 -96 0 
1 36 106 0 
1 90 91 0 
1 100 54 0 
1 -43 -83 0 
1 -89 -16 0 
1 -70 59 0 
1 65 -2 0 
1 -60 -127 0 
1 33 110 0 
1 75 -133 0 
1 -143 -161 0 
1 -110 -12 0 
1 100 82 0 
1 -5 -131 0 
1 95 -121 0 
1 -9 103 0 
1 -123 -61 0 
1 -150 146 0 
1 58 -46 0 
1 7 147 0 
1 -159 -156 0 
1 7 146 0 
1 96 -57 0 
1 -73 -128 0 
1 72 148 0 
1 -51 144 0 
1 62 135 0 
1 -68 -155 0 
1 93 117 0 
1 98 10 0 
1 -114 -117 0 
1 -58 -14 0 
1 15 -163 0 
1 41 -118 0 
1 -35 -107 0 
1 71 136 0 
1 -97 13 0 
1 18 135 0 
1 2 -130 0 
1 7 152 0 
1 79 29 0 
1 -21 -125 0 
1 79 161 0 
1 -53 -159 0 
1 -3 104 0 
1 -57 -102 0 
1 -137 9 0 
1 20 152 0 
1 12 161 0 
1 -74 170 0 
1 -3 41 0 
1 -99 -106 0 
1 87 -14 0 
1 35 -81 0 
1 -115 -136 0 
1 -87 -107 0 
1 -16 -34 0 
1 132 -28 0 
1 152 40 0 
1 -135 -81 0 
1 168 -110 0 
1 119 140 0 
1 -57 -89 0 
1 133 58 0 
1 157 -135 0 
1 -70 114 0 
1 64 -77 0 
1 -21 -130 0 
1 -70 -146 0 
1 50 -161 0 
1 51 12 0 
1 -75 103 0 
1 -165 -84 0 
1 -62 79 0 
1 -162 -4 0 
1 82 23 0 
1 8 38 0 
1 -17 -1 0 
1 159 169 0 
1 132 -53 0 
1 -69 133 0 
1 168 -130 0 
1 -37 95 0 
1 -168 -151 0 
1 136 19 0 
1 -19 78 0 
1 11 145 0 
1 65 161 0 
1 87 -31 0 
1 45 -92 0 
1 -92 -48 0 
1 68 -64 0 
1 -38 161 0 
1 155 -84 0 
1 -66 5 0 
1 -109 -124 0 
1 -60 -122 0 
1 124 -59 0 
1 -105 49 0 
1 -11 64 0 
1 -53 -143 0 
1 -98 -4 0 
1 87 161 0 
1 -85 -90 0 
1 57 -138 0 
1 -130 -17 0 
1 -129 67 0 
1 -58 163 0 
1 -133 -9 0 
1 -159 -64 0 
1 -141 9 0 
1 -73 -88 0 
1 76 74 0 
1 109 155 0 
1 84 83 0 
1 -62 -74 0 
1 -17 36 0 
1 107 -20 0 
1 93 117 0 
1 -164 -107 0 
1 -157 -126 0 
1 116 -53 0 
1 8 41 0 
1 -120 1 0 
1 22 -3 0 
1 170 69 0 
1 79 25 0 
1 -93 -42 0 
1 -45 -64 0 
1 95 -122 0 
1 144 38 0 
1 144 52 0 
1 -122 -100 0 
1 55 131 0 
1 -142 -79 0 
1 -113 -163 0 
1 159 51 0 
1 -72 -12 0 
1 -143 -115 0 
1 130 137 0 
1 142 105 0 
1 -143 3 0 
1 150 53 0 
1 134 18 0 
1 160 -149 0 
1 29 -52 0 
1 -74 -115 0 
1 -42 130 0 
1 145 28 0 
1 10 125 0 
1 -22 -77 0 
1 -52 -138 0 
1 -145 111 0 
1 107 6 0 
1 118 35 0 
1 -14 70 0 
1 15 -3 0 
1 93 -26 0 
1 -134 98 0 
1 -11 147 0 
1 24 147 0 
1 107 -149 0 
1 12 130 0 
1 160 155 0 
1 9 116 0 
1 74 143 0 
1 141 92 0 
1 -5 -149 0 
1 69 -130 0 
1 -9 -30 0 
1 -50 -19 0 
1 38 -110 0 
1 -16 -77 0 
1 88 -16 0 
1 -162 -41 0 
1 62 -66 0 
1 -8 129 0 
1 165 -170 0 
1 48 22 0 
1 -125 165 0 
1 123 -26 0 
1 -50 -7 0 
1 -74 -165 0 
1 -131 29 0 
1 21 168 0 
1 33 127 0 
1 -118 42 0 
1 22 83 0 
1 -63 -147 0 
1 163 133 0 
1 -159 32 0 
1 -129 88 0 
1 -13 169 0 
1 -114 3 0 
1 34 -103 0 
1 -151 116 0 
1 -64 -57 0 
1 -125 -48 0 
1 -145 -85 0 
1 41 91 0 
1 -149 -34 0 
1 -18 4 0 
1 3 -119 0 
1 -15 142 0 
1 -104 -4 0 
1 -119 165 0 
1 61 -101 0 
1 -73 8 0 
1 132 -144 0 
1 -70 37 0 
1 -166 103 0 
1 98 38 0 
1 13 -96 0 
1 4 -21 0 
1 45 67 0 
1 19 -92 0 
1 123 160 0 
1 -75 -11 0 
1 -129 -133 0 
1 24 -12 0 
